objective value:                                  -10
t_n_6                                               1 	(obj:-1)
t_n_148                                             1 	(obj:-1)
t_n_364                                             1 	(obj:-1)
t_n_424                                             1 	(obj:-1)
t_n_582                                             1 	(obj:-1)
t_n_625                                             1 	(obj:-1)
t_n_670                                             1 	(obj:-1)
t_n_737                                             1 	(obj:-1)
t_n_786                                             1 	(obj:-1)
t_n_899                                             1 	(obj:-1)
